Normalized Data/p04_5_normalized_split0.vrp
NAME:p04_5_NORMALIZED_split
BEST_KNOWN: 0
COMMENT: 0
DIMENSION: 583
CAPACITY: 100
EDGE_WEIGHT_FORMAT: FUNCTION
EDGE_WEIGHT_TYPE: EXACT_2D
NODE_COORD_SECTION
1 0.00000 0.00000
2 -36 48
3 -36 48
4 -36 48
5 -36 48
6 -10 -39
7 -10 -39
8 -10 -39
9 -10 -39
10 12 5
11 12 5
12 12 5
13 12 5
14 12 5
15 -29 32
16 -29 32
17 -29 32
18 -41 -33
19 -41 -33
20 -41 -33
21 38 16
22 38 16
23 38 16
24 31 -41
25 31 -41
26 -11 -47
27 -11 -47
28 -11 -47
29 -11 -47
30 34 -48
31 34 -48
32 34 -48
33 -10 3
34 -10 3
35 -10 3
36 -10 3
37 -37 8
38 -37 8
39 -6 39
40 -6 39
41 -6 39
42 -6 39
43 -6 39
44 -6 39
45 -6 39
46 -24 -43
47 -24 -43
48 -24 -43
49 34 42
50 34 42
51 34 42
52 18 -3
53 18 -3
54 18 -3
55 18 -3
56 18 -3
57 18 -3
58 -45 29
59 -45 29
60 -45 29
61 -45 29
62 44 44
63 44 44
64 44 44
65 44 44
66 44 44
67 -50 27
68 -50 27
69 -50 27
70 31 -50
71 31 -50
72 31 -50
73 31 -50
74 31 -50
75 0 -31
76 14 -43
77 14 -43
78 14 -43
79 14 -43
80 -37 -10
81 -37 -10
82 -10 34
83 -10 34
84 -10 34
85 -10 34
86 -10 34
87 2 35
88 2 35
89 2 35
90 2 35
91 2 35
92 -43 -10
93 -43 -10
94 -43 -10
95 -43 -10
96 -43 -10
97 16 40
98 16 40
99 16 40
100 -9 41
101 -9 41
102 -9 41
103 -49 -40
104 -49 -40
105 34 26
106 34 26
107 34 26
108 34 26
109 34 26
110 34 26
111 -1 -25
112 -1 -25
113 -1 -25
114 -50 -9
115 -50 -9
116 -50 -9
117 -50 -9
118 -50 -9
119 -50 -9
120 17 30
121 17 30
122 33 -19
123 33 -19
124 -12 -1
125 -12 -1
126 -12 -1
127 -12 -1
128 -12 -1
129 -12 -1
130 14 -34
131 14 -34
132 14 -34
133 14 -34
134 -50 -43
135 -50 -43
136 -2 -44
137 -2 -44
138 -2 -44
139 -2 -44
140 -2 -44
141 9 -7
142 9 -7
143 9 -7
144 -33 -32
145 -33 -32
146 -33 -32
147 -33 -32
148 -33 -32
149 -33 -32
150 39 -26
151 39 -26
152 -15 -31
153 -15 -31
154 -15 -31
155 -15 -31
156 25 25
157 25 25
158 25 25
159 25 25
160 25 25
161 25 25
162 20 11
163 20 11
164 20 11
165 37 4
166 37 4
167 37 4
168 -29 -32
169 -29 -32
170 -29 -32
171 -29 -32
172 27 -28
173 27 -28
174 27 -28
175 11 5
176 11 5
177 -23 17
178 -23 17
179 -23 17
180 19 -15
181 19 -15
182 19 -15
183 19 -15
184 19 -15
185 19 -15
186 50 -36
187 50 -36
188 50 -36
189 -5 -35
190 -5 -35
191 -5 -35
192 -5 3
193 -5 3
194 -5 3
195 -5 3
196 -5 3
197 -5 3
198 -5 3
199 -35 1
200 -35 1
201 -35 1
202 -35 1
203 -11 37
204 -11 37
205 49 -39
206 49 -39
207 -40 6
208 -40 6
209 -40 6
210 -40 6
211 -40 6
212 -40 6
213 5 30
214 5 30
215 20 -43
216 20 -43
217 20 -43
218 20 -43
219 20 -43
220 -23 -4
221 -23 -4
222 -23 -4
223 -23 -4
224 -17 49
225 -17 49
226 -17 49
227 -17 49
228 -3 46
229 -3 46
230 -3 46
231 -3 46
232 25 -15
233 25 -15
234 25 -15
235 25 -15
236 31 -20
237 31 -20
238 31 -20
239 -8 -25
240 -8 -25
241 -8 -25
242 -8 -25
243 -8 -25
244 -8 -25
245 31 29
246 31 29
247 31 29
248 31 29
249 31 29
250 39 27
251 39 27
252 39 27
253 39 27
254 39 27
255 -11 -44
256 -11 -44
257 -11 -44
258 -11 -44
259 5 -19
260 5 -19
261 5 -19
262 -50 14
263 -50 14
264 -50 14
265 18 45
266 18 45
267 18 45
268 18 45
269 -25 25
270 -25 25
271 -25 25
272 35 17
273 35 17
274 35 17
275 35 17
276 30 -24
277 30 -24
278 30 -24
279 30 -24
280 30 -24
281 29 -9
282 29 -9
283 -26 22
284 -26 22
285 -26 22
286 -26 22
287 -26 22
288 -26 22
289 -26 22
290 -38 -42
291 -38 -42
292 -38 -42
293 -13 -4
294 -13 -4
295 -13 -4
296 -13 -4
297 -13 -4
298 -22 46
299 -22 46
300 -22 46
301 -22 46
302 -2 15
303 -2 15
304 -2 15
305 -2 15
306 -2 15
307 -2 15
308 9 -29
309 9 -29
310 9 -29
311 9 -29
312 9 -29
313 35 -18
314 35 -18
315 35 -18
316 35 -18
317 -29 27
318 -29 27
319 34 18
320 34 18
321 34 18
322 -16 28
323 -16 28
324 -16 28
325 -16 28
326 -16 28
327 1 23
328 1 23
329 1 23
330 1 23
331 -24 27
332 -24 27
333 -24 27
334 -2 -11
335 20 14
336 20 14
337 20 14
338 -36 13
339 -36 13
340 -36 13
341 42 -30
342 42 -30
343 42 -30
344 42 -30
345 42 -30
346 42 -30
347 17 -29
348 17 -29
349 17 -29
350 17 -29
351 17 -29
352 17 -29
353 -11 -8
354 -11 -8
355 35 23
356 35 23
357 35 23
358 35 23
359 35 23
360 35 23
361 -6 12
362 -35 3
363 -35 3
364 -35 3
365 -35 3
366 -35 3
367 40 19
368 40 19
369 40 19
370 -30 -29
371 -30 -29
372 -30 -29
373 37 -34
374 37 -34
375 -11 -47
376 -11 -47
377 -11 -47
378 -11 -47
379 -11 49
380 -11 49
381 -11 49
382 -11 49
383 -11 49
384 -11 49
385 -16 13
386 -16 13
387 -16 13
388 -16 13
389 44 5
390 44 5
391 44 5
392 34 10
393 34 10
394 34 10
395 34 10
396 34 10
397 -49 -9
398 -49 -9
399 -49 -9
400 -49 -9
401 -49 -9
402 -49 -9
403 12 30
404 12 30
405 12 30
406 12 30
407 12 30
408 16 38
409 16 38
410 16 38
411 16 38
412 16 38
413 -2 -18
414 -2 -18
415 -2 -18
416 4 -2
417 4 -2
418 4 -2
419 23 8
420 23 8
421 50 34
422 50 34
423 50 34
424 50 34
425 50 34
426 24 9
427 24 9
428 24 9
429 24 9
430 24 9
431 -27 -48
432 -27 -48
433 -27 -48
434 -27 -48
435 18 -30
436 18 -30
437 18 -30
438 18 -30
439 0 50
440 0 50
441 0 50
442 0 50
443 24 -5
444 24 -5
445 24 -5
446 24 -5
447 24 -5
448 8 7
449 8 7
450 8 7
451 8 7
452 8 7
453 8 7
454 12 17
455 12 17
456 12 17
457 -22 -3
458 -22 -3
459 -20 2
460 -20 2
461 -20 2
462 -20 2
463 -18 16
464 -18 16
465 -18 16
466 -18 16
467 -18 16
468 -18 16
469 -28 -26
470 -28 -26
471 -28 -26
472 -28 -26
473 26 23
474 26 23
475 26 23
476 26 23
477 26 23
478 11 0
479 11 0
480 11 0
481 11 0
482 19 -9
483 19 -9
484 19 -9
485 19 -9
486 19 -9
487 -27 -10
488 -27 -10
489 -1 41
490 -1 41
491 -1 41
492 -31 -7
493 -31 -7
494 -31 -7
495 -31 -7
496 -31 -7
497 -31 -7
498 36 -27
499 36 -27
500 36 -27
501 36 -27
502 4 47
503 4 47
504 4 47
505 4 47
506 48 -22
507 48 -22
508 48 -22
509 40 6
510 40 6
511 40 6
512 40 6
513 40 6
514 40 6
515 2 -7
516 2 -7
517 2 -7
518 2 -7
519 -45 21
520 -45 21
521 -45 21
522 -20 -33
523 -20 -33
524 -20 -33
525 -20 -33
526 -20 -33
527 -20 -33
528 15 -12
529 15 -12
530 -36 26
531 -36 26
532 43 50
533 43 50
534 43 50
535 43 50
536 43 50
537 -34 -30
538 -34 -30
539 -34 -30
540 -34 -30
541 -34 -30
542 -34 -30
543 40 36
544 40 36
545 11 -10
546 11 -10
547 11 -10
548 -49 -22
549 -49 -22
550 -49 -22
551 -13 -18
552 44 -5
553 44 -5
554 44 -5
555 44 -5
556 44 -5
557 -44 28
558 -44 28
559 -44 28
560 -39 -8
561 -39 -8
562 -39 -8
563 -39 -8
564 -39 -8
565 2 -40
566 2 -40
567 2 -40
568 2 -40
569 0 -27
570 0 -27
571 -37 -12
572 -37 -12
573 -37 -12
574 3 -5
575 3 -5
576 3 -5
577 3 -5
578 3 -5
579 -5 17
580 -5 17
581 -5 17
582 -5 17
583 -5 17
DEMAND_SECTION
1 0
2 20
3 1
4 1
5 1
6 20
7 20
8 1
9 1
10 10
11 5
12 1
13 1
14 1
15 20
16 1
17 1
18 10
19 5
20 1
21 10
22 5
23 1
24 20
25 5
26 10
27 1
28 1
29 1
30 20
31 5
32 1
33 20
34 10
35 1
36 1
37 10
38 5
39 20
40 10
41 5
42 1
43 1
44 1
45 1
46 20
47 20
48 1
49 10
50 1
51 1
52 20
53 20
54 5
55 1
56 1
57 1
58 20
59 10
60 1
61 1
62 20
63 20
64 1
65 1
66 1
67 20
68 20
69 5
70 10
71 1
72 1
73 1
74 1
75 20
76 20
77 20
78 5
79 1
80 10
81 5
82 10
83 1
84 1
85 1
86 1
87 10
88 1
89 1
90 1
91 1
92 10
93 5
94 1
95 1
96 1
97 20
98 10
99 5
100 20
101 1
102 1
103 20
104 10
105 20
106 20
107 1
108 1
109 1
110 1
111 20
112 20
113 1
114 20
115 20
116 5
117 1
118 1
119 1
120 20
121 20
122 20
123 10
124 10
125 5
126 1
127 1
128 1
129 1
130 20
131 10
132 5
133 1
134 20
135 20
136 10
137 1
138 1
139 1
140 1
141 20
142 20
143 10
144 20
145 20
146 5
147 1
148 1
149 1
150 20
151 5
152 20
153 10
154 5
155 1
156 20
157 20
158 1
159 1
160 1
161 1
162 20
163 20
164 1
165 20
166 5
167 1
168 20
169 20
170 1
171 1
172 20
173 20
174 10
175 20
176 5
177 20
178 20
179 5
180 10
181 5
182 1
183 1
184 1
185 1
186 20
187 10
188 1
189 10
190 1
191 1
192 20
193 10
194 5
195 1
196 1
197 1
198 1
199 20
200 20
201 5
202 1
203 20
204 1
205 20
206 10
207 10
208 5
209 1
210 1
211 1
212 1
213 20
214 1
215 10
216 1
217 1
218 1
219 1
220 20
221 20
222 5
223 1
224 10
225 1
226 1
227 1
228 20
229 20
230 5
231 1
232 20
233 20
234 5
235 1
236 20
237 5
238 1
239 10
240 5
241 1
242 1
243 1
244 1
245 20
246 10
247 5
248 1
249 1
250 20
251 10
252 5
253 1
254 1
255 20
256 20
257 1
258 1
259 20
260 10
261 1
262 10
263 5
264 1
265 20
266 20
267 5
268 1
269 20
270 5
271 1
272 20
273 5
274 1
275 1
276 20
277 5
278 1
279 1
280 1
281 10
282 5
283 20
284 20
285 5
286 1
287 1
288 1
289 1
290 20
291 10
292 5
293 20
294 10
295 5
296 1
297 1
298 10
299 5
300 1
301 1
302 20
303 20
304 5
305 1
306 1
307 1
308 10
309 1
310 1
311 1
312 1
313 20
314 20
315 5
316 1
317 20
318 10
319 10
320 1
321 1
322 20
323 20
324 5
325 1
326 1
327 20
328 1
329 1
330 1
331 20
332 20
333 5
334 20
335 20
336 20
337 5
338 10
339 5
340 1
341 20
342 10
343 5
344 1
345 1
346 1
347 20
348 20
349 1
350 1
351 1
352 1
353 20
354 20
355 20
356 20
357 5
358 1
359 1
360 1
361 20
362 20
363 10
364 1
365 1
366 1
367 20
368 20
369 5
370 20
371 10
372 5
373 20
374 10
375 20
376 10
377 5
378 1
379 20
380 10
381 5
382 1
383 1
384 1
385 20
386 5
387 1
388 1
389 20
390 20
391 1
392 20
393 10
394 1
395 1
396 1
397 20
398 20
399 5
400 1
401 1
402 1
403 20
404 10
405 5
406 1
407 1
408 20
409 20
410 5
411 1
412 1
413 20
414 5
415 1
416 20
417 1
418 1
419 10
420 5
421 20
422 10
423 5
424 1
425 1
426 20
427 10
428 1
429 1
430 1
431 20
432 10
433 1
434 1
435 20
436 20
437 1
438 1
439 10
440 1
441 1
442 1
443 20
444 20
445 5
446 1
447 1
448 20
449 5
450 1
451 1
452 1
453 1
454 20
455 20
456 5
457 20
458 5
459 20
460 20
461 5
462 1
463 20
464 5
465 1
466 1
467 1
468 1
469 20
470 10
471 1
472 1
473 10
474 5
475 1
476 1
477 1
478 20
479 5
480 1
481 1
482 20
483 5
484 1
485 1
486 1
487 10
488 5
489 10
490 5
491 1
492 20
493 20
494 5
495 1
496 1
497 1
498 20
499 20
500 5
501 1
502 20
503 10
504 5
505 1
506 20
507 10
508 1
509 20
510 5
511 1
512 1
513 1
514 1
515 10
516 5
517 1
518 1
519 10
520 5
521 1
522 20
523 5
524 1
525 1
526 1
527 1
528 20
529 5
530 20
531 20
532 20
533 20
534 1
535 1
536 1
537 20
538 20
539 1
540 1
541 1
542 1
543 10
544 5
545 20
546 5
547 1
548 10
549 5
550 1
551 20
552 10
553 1
554 1
555 1
556 1
557 10
558 5
559 1
560 20
561 1
562 1
563 1
564 1
565 20
566 5
567 1
568 1
569 20
570 1
571 20
572 1
573 1
574 10
575 1
576 1
577 1
578 1
579 20
580 20
581 1
582 1
583 1
DEPOT_SECTION
1
-1
EOF