Normalized Data/p04_5_normalized_split0.sol
582 -12 10 163 359 358 354 355 356 357 104 105 336 -14 16 15 59 58 57 60 530 529 284 285 -32 34 35 33 192 197 194 191 193 -50 49 48 535 533 531 532 534 61 65 64 62 63 451 450 -56 55 51 52 53 54 443 445 442 446 444 -81 83 84 202 203 324 322 323 325 321 360 -85 82 381 378 382 379 380 383 225 223 224 226 297 298 300 299 2 4 3 1 332 -87 89 90 88 86 488 490 489 43 41 38 40 42 44 39 99 101 100 -96 265 266 264 267 98 406 404 405 402 -97 407 411 408 409 410 119 120 -103 102 133 134 148 145 146 147 143 470 471 -108 109 106 107 249 252 251 250 253 420 421 423 424 422 543 542 448 452 449 -117 113 114 118 116 115 396 398 397 400 401 399 562 560 -127 126 125 128 124 123 292 296 295 293 294 353 352 -130 132 131 129 77 76 75 78 309 310 307 311 308 260 -149 150 345 344 343 340 341 342 372 373 276 279 278 -151 153 154 45 46 47 431 432 433 430 524 -152 377 27 28 375 376 26 374 25 139 138 137 136 135 564 566 567 565 -159 155 156 160 157 158 248 244 245 247 246 474 476 475 472 473 -162 161 334 335 447 -171 23 24 30 29 31 69 72 73 71 70 216 214 215 217 218 -172 173 497 500 499 498 275 277 181 182 -175 174 9 13 11 426 428 427 425 418 477 480 -189 188 190 255 256 257 254 8 6 7 5 240 242 241 -195 196 387 386 269 270 268 317 316 331 330 -200 201 199 198 361 364 362 459 461 -208 210 263 262 261 520 519 518 66 67 68 558 556 557 -221 220 219 222 456 457 458 460 -227 229 230 228 439 440 441 438 504 503 501 502 -232 231 233 184 183 179 180 528 527 573 576 574 575 -234 236 237 204 205 186 187 185 506 507 505 -235 122 121 315 314 313 312 -273 272 271 274 20 21 22 366 367 368 319 320 318 -288 283 286 287 282 337 338 339 36 37 207 206 211 209 363 365 495 493 494 -291 290 289 19 17 18 548 549 547 91 95 93 94 92 486 487 -301 304 303 302 305 306 581 582 579 580 578 -327 329 328 326 213 212 403 454 455 453 -333 414 112 569 568 74 243 239 238 550 -369 371 370 144 539 537 538 540 541 536 -385 384 177 178 176 464 465 462 466 463 467 -390 389 388 555 554 553 551 552 281 280 482 485 484 483 481 -412 413 110 111 259 258 515 -416 417 415 141 142 140 544 546 545 -419 429 395 391 394 393 392 510 511 513 512 509 508 166 165 164 478 479 -469 468 169 170 167 168 522 523 525 526 521 -496 491 492 561 559 563 79 80 572 571 570 -517 514 516 350 348 351 349 347 346 435 434 437 436 577 0 





OBJ=
4095.438
BEST_KNOWN=
0.000